c Generalized Petersen graph GP(40,6)
c Regular cubic graph, hard chromatic structure
c Both algorithms struggle with 3-colorability
p edge 80 120
e 1 2
e 1 40
e 1 41
e 2 3
e 2 43
e 3 4
e 3 45
e 4 5
e 4 47
e 5 6
e 5 49
e 6 7
e 6 51
e 7 8
e 7 42
e 8 9
e 8 44
e 9 10
e 9 46
e 10 11
e 10 48
e 11 12
e 11 50
e 12 13
e 12 52
e 13 14
e 13 53
e 14 15
e 14 54
e 15 16
e 15 55
e 16 17
e 16 56
e 17 18
e 17 57
e 18 19
e 18 58
e 19 20
e 19 59
e 20 21
e 20 60
e 21 22
e 21 61
e 22 23
e 22 62
e 23 24
e 23 63
e 24 25
e 24 64
e 25 26
e 25 65
e 26 27
e 26 66
e 27 28
e 27 67
e 28 29
e 28 68
e 29 30
e 29 69
e 30 31
e 30 70
e 31 32
e 31 71
e 32 33
e 32 72
e 33 34
e 33 73
e 34 35
e 34 74
e 35 36
e 35 75
e 36 37
e 36 76
e 37 38
e 37 77
e 38 39
e 38 78
e 39 40
e 39 79
e 40 80
e 41 42
e 41 75
e 42 53
e 43 44
e 43 76
e 44 54
e 45 46
e 45 77
e 46 55
e 47 48
e 47 78
e 48 56
e 49 50
e 49 79
e 50 57
e 51 52
e 51 80
e 52 58
e 53 59
e 54 60
e 55 61
e 56 62
e 57 63
e 58 64
e 59 65
e 60 66
e 61 67
e 62 68
e 63 69
e 64 70
e 65 71
e 66 72
e 67 73
e 68 74
e 69 75
e 70 76
e 71 77
e 72 78
e 73 79
e 74 80
